c WARNING: for repeatability, setting FPU to use double precision
d VARIABLES            59274        
d CONSTRAINTS          257719       
c ============================[ Problem Statistics ]=============================
c |                                                                             |
c |  Number of variables:         59274                                         |
c |  Number of clauses:          257719                                         |
c |  Parse time:                   0.04 s                                       |
c |                                                                             |
c ============================[ Search Statistics ]==============================
c | Conflicts |          ORIGINAL         |          LEARNT          | Progress |
c |           |    Vars  Clauses Literals |    Limit  Clauses Lit/Cl |          |
c ===============================================================================
c |       100 |   48707   227819   553202 |    83533      100      8 | 17.827 % |
c |       250 |   48707   227819   553202 |    91886      250     12 | 17.827 % |
c |       475 |   48707   227819   553202 |   101075      475     46 | 17.827 % |
c |       812 |   48707   227819   553202 |   111183      812     69 | 17.827 % |
c |      1318 |   48707   227819   553202 |   122301     1318     73 | 17.827 % |
c |      2077 |   48707   227819   553202 |   134531     2077     62 | 17.827 % |
c |      3216 |   48707   227819   553202 |   147984     3216     74 | 17.827 % |
c |      4924 |   48707   227819   553202 |   162783     4924     76 | 17.827 % |
c |      7486 |   48707   227819   553202 |   179061     7486     90 | 17.827 % |
c |     11330 |   48707   227819   553202 |   196967    11330    100 | 17.827 % |
c |     17096 |   48707   227819   553202 |   216664    17096     97 | 17.827 % |
c |     25745 |   48707   227819   553202 |   238331    25745    103 | 17.827 % |
c |     38719 |   48707   227819   553202 |   262164    38719    127 | 17.827 % |
c |     58180 |   48707   227819   553202 |   288380    58180    149 | 17.827 % |
c |     87372 |   48707   227819   553202 |   317218    87372    153 | 17.827 % |
c |    131161 |   48707   227819   553202 |   348940   131161    153 | 17.827 % |
c |    196845 |   48707   227819   553202 |   383834   196845    156 | 17.827 % |
c |    295371 |   48707   227819   553202 |   422218   295371    172 | 17.827 % |
c |    443160 |   48707   227819   553202 |   464440    29110    171 | 17.827 % |
c |    664843 |   48707   227819   553202 |   510884   250793    181 | 17.827 % |
c |    997368 |   48707   227819   553202 |   561972    85997    158 | 17.827 % |
c |   1496156 |   48707   227819   553202 |   618169    42284     97 | 17.827 % |
c |   2244338 |   48707   227819   553202 |   679986   164769    155 | 17.827 % |
c |   3366612 |   48707   227819   553202 |   747985   629592    193 | 17.827 % |
c ===============================================================================
c restarts              : 6139
c conflicts             : 3401582        (1897 /sec)
c decisions             : 8903680        (0.00 % random) (4966 /sec)
c propagations          : 2950938221     (1645759 /sec)
c conflict literals     : 610527413      (26.94 % deleted)
d RESTARTS             6139
d FAILURES             3401582      
d NODES                8903680      
d BACKTRACKS           8903680      
d PROPAGATIONS         2950938221   
d NOGOODSIZE           179.48 
d MEMORY               708.00 
d TIME                 1793.06 

s UNKNOWN
